RT is False
Default write of storage_offers_DA.csv just to have a file (but constraint should be inactive)
Reading model...
...model read.
creating competitive generators file...
...competitive generators recorded.
Loading data...
.. day-ahead data read.
Compiling instance...
...instance created.
Creating Offer Mitigation (model will solve as dispatch if TRUE)...
NOTE: storage offers will not be mitigated
...storage offer mitigation file created
Converting model to MPEC...
...converted
NOTE: initial MIP solve with only storage competitive to get feasible solution
Solving...

Welcome to IBM(R) ILOG(R) CPLEX(R) Interactive Optimizer 12.9.0.0
  with Simplex, Mixed Integer & Barrier Optimizers
5725-A06 5725-A29 5724-Y48 5724-Y49 5724-Y54 5724-Y55 5655-Y21
Copyright IBM Corp. 1988, 2019.  All Rights Reserved.

Type 'help' for a list of available commands.
Type 'help' followed by a command name for more
information on commands.

CPLEX> Logfile 'cplex.log' closed.
Logfile 'C:\Users\Luke\Desktop\test919\logs\tmpqh1lbuzs.cplex.log' open.
CPLEX> New value for parallel optimization mode: -1
CPLEX> New value for mixed integer optimality gap tolerance: 0.01
CPLEX> New value for integrality tolerance: 1e-09
CPLEX> New value for feasibility tolerance: 0.01
CPLEX> New value for deterministic time limit in ticks: 75000
CPLEX> Problem 'C:\Users\Luke\Desktop\test919\logs\tmpvmnp9_wr.pyomo.lp' read.
Read time = 0.20 sec. (14.73 ticks)
CPLEX> Problem name         : C:\Users\Luke\Desktop\test919\logs\tmpvmnp9_wr.pyomo.lp
Objective sense      : Maximize
Variables            :   53805  [Nneg: 1,  Box: 22000,  Free: 4464,
                                 Binary: 27340]
Objective nonzeros   :    8995
Linear constraints   :  123205  [Less: 41346,  Greater: 59096,  Equal: 22763]
  Nonzeros           :  291719
  RHS nonzeros       :   67457

Variables            : Min LB: -5000.000        Max UB: 1000000.       
Objective nonzeros   : Min   : 1.400000         Max   : 2500.000       
Linear constraints   :
  Nonzeros           : Min   : 0.8500000        Max   : 1000000.       
  RHS nonzeros       : Min   : 1.000000         Max   : 1000000.       
CPLEX> CPXPARAM_Parallel                                -1
CPXPARAM_Simplex_Tolerances_Feasibility          0.01
CPXPARAM_DetTimeLimit                            75000
CPXPARAM_MIP_Tolerances_MIPGap                   0.01
CPXPARAM_MIP_Tolerances_Integrality              1.0000000000000001e-09
Tried aggregator 3 times.
MIP Presolve eliminated 88765 rows and 19063 columns.
MIP Presolve added 3351 rows and 0 columns.
MIP Presolve modified 24772 coefficients.
Aggregator did 13009 substitutions.
Reduced MIP has 24782 rows, 21151 columns, and 70751 nonzeros.
Reduced MIP has 8367 binaries, 0 generals, 0 SOSs, and 0 indicators.
Presolve time = 0.23 sec. (172.56 ticks)
Probing fixed 400 vars, tightened 2847 bounds.
Probing time = 1.52 sec. (876.17 ticks)
Tried aggregator 2 times.
MIP Presolve eliminated 913 rows and 809 columns.
MIP Presolve modified 2179 coefficients.
Aggregator did 35 substitutions.
Reduced MIP has 23834 rows, 20307 columns, and 68006 nonzeros.
Reduced MIP has 7963 binaries, 0 generals, 0 SOSs, and 0 indicators.
Presolve time = 0.11 sec. (70.65 ticks)
Probing time = 0.03 sec. (16.01 ticks)
Clique table members: 6297.
MIP emphasis: balance optimality and feasibility.
MIP search method: dynamic search.
Parallel mode: opportunistic, using up to 24 threads.
Root relaxation solution time = 0.39 sec. (498.14 ticks)

        Nodes                                         Cuts/
   Node  Left     Objective  IInf  Best Integer    Best Bound    ItCnt     Gap

      0     0     2263.3882   664                   2263.3882     6150         
      0     9    infeasible                       Impl Bds: 1     6193         
Elapsed time = 7.31 sec. (4395.51 ticks, tree = 0.02 MB, solutions = 0)
*    20+   45                         1599.4837     2259.6599            41.27%
*   164+   14                         2225.1847     2259.6599             1.55%
    291   154     2254.7552     1     2225.1847     2259.6599     7155    1.55%
*   395   142      integral     0     2257.6568     2259.6599     7110    0.09%
*   453   156      integral     0     2258.4475     2259.6599     7189    0.05%

Implied bound cuts applied:  7

Root node processing (before b&c):
  Real time             =    6.84 sec. (4379.06 ticks)
Parallel b&c, 24 threads:
  Real time             =    1.69 sec. (627.78 ticks)
  Sync time (average)   =    0.20 sec.
  Wait time (average)   =    0.00 sec.
                          ------------
Total (root+branch&cut) =    8.53 sec. (5006.84 ticks)

Solution pool: 14 solutions saved.

MIP - Integer optimal, tolerance (0.01/1e-06):  Objective =  2.2584474505e+03
Current MIP best bound =  2.2596598747e+03 (gap = 1.21242, 0.05%)
Solution time =    8.55 sec.  Iterations = 7858  Nodes = 478 (10)
Deterministic time = 5006.99 ticks  (585.82 ticks/sec)

CPLEX> Incumbent solution written to file 'C:\Users\Luke\Desktop\test919\logs\tmp60b60opp.cplex.sol'.
CPLEX> NOTE: no warmstart specified for MIP iteration, default behavior is true
NOTE: resolving with all competitive generators using storage-only solution to warmstart
Solving...

Welcome to IBM(R) ILOG(R) CPLEX(R) Interactive Optimizer 12.9.0.0
  with Simplex, Mixed Integer & Barrier Optimizers
5725-A06 5725-A29 5724-Y48 5724-Y49 5724-Y54 5724-Y55 5655-Y21
Copyright IBM Corp. 1988, 2019.  All Rights Reserved.

Type 'help' for a list of available commands.
Type 'help' followed by a command name for more
information on commands.

CPLEX> Logfile 'cplex.log' closed.
Logfile 'C:\Users\Luke\Desktop\test919\logs\tmp972s3avo.cplex.log' open.
CPLEX> New value for parallel optimization mode: -1
CPLEX> New value for mixed integer optimality gap tolerance: 0.01
CPLEX> New value for integrality tolerance: 1e-09
CPLEX> New value for feasibility tolerance: 0.01
CPLEX> New value for deterministic time limit in ticks: 75000
CPLEX> Problem 'C:\Users\Luke\Desktop\test919\logs\tmp6mrjwd10.pyomo.lp' read.
Read time = 0.19 sec. (14.75 ticks)
CPLEX> MIP start file 'C:\Users\Luke\Desktop\test919\logs\tmp4hnk45yr.cplex.mst' read.
CPLEX> Problem name         : C:\Users\Luke\Desktop\test919\logs\tmp6mrjwd10.pyomo.lp
Objective sense      : Maximize
Variables            :   54525  [Nneg: 1,  Box: 22720,  Free: 4464,
                                 Binary: 27340]
Objective nonzeros   :    9715
Linear constraints   :  123205  [Less: 41346,  Greater: 59096,  Equal: 22763]
  Nonzeros           :  291719
  RHS nonzeros       :   67457

Variables            : Min LB: -5000.000        Max UB: 1000000.       
Objective nonzeros   : Min   : 1.400000         Max   : 2500.000       
Linear constraints   :
  Nonzeros           : Min   : 0.8500000        Max   : 1000000.       
  RHS nonzeros       : Min   : 1.000000         Max   : 1000000.       
CPLEX> CPXPARAM_Parallel                                -1
CPXPARAM_Simplex_Tolerances_Feasibility          0.01
CPXPARAM_DetTimeLimit                            75000
CPXPARAM_MIP_Tolerances_MIPGap                   0.01
CPXPARAM_MIP_Tolerances_Integrality              1.0000000000000001e-09
Warning:  No solution found from 1 MIP starts.
Retaining values of one MIP start for possible repair.
Tried aggregator 3 times.
MIP Presolve eliminated 88765 rows and 19783 columns.
MIP Presolve added 3351 rows and 0 columns.
MIP Presolve modified 24772 coefficients.
Aggregator did 13009 substitutions.
Reduced MIP has 24782 rows, 21151 columns, and 70751 nonzeros.
Reduced MIP has 8367 binaries, 0 generals, 0 SOSs, and 0 indicators.
Presolve time = 0.23 sec. (172.91 ticks)
Probing fixed 400 vars, tightened 2847 bounds.
Probing time = 1.47 sec. (876.17 ticks)
Tried aggregator 2 times.
MIP Presolve eliminated 913 rows and 809 columns.
MIP Presolve modified 2179 coefficients.
Aggregator did 35 substitutions.
Reduced MIP has 23834 rows, 20307 columns, and 68006 nonzeros.
Reduced MIP has 7963 binaries, 0 generals, 0 SOSs, and 0 indicators.
Presolve time = 0.09 sec. (70.65 ticks)
Probing time = 0.03 sec. (16.01 ticks)
Clique table members: 6297.
MIP emphasis: balance optimality and feasibility.
MIP search method: dynamic search.
Parallel mode: opportunistic, using up to 24 threads.
Root relaxation solution time = 0.41 sec. (498.14 ticks)

        Nodes                                         Cuts/
   Node  Left     Objective  IInf  Best Integer    Best Bound    ItCnt     Gap

      0     0     2263.3882   664                   2263.3882     6150         
Repair heuristic found nothing.
      0     9    infeasible                         2263.3882     6193         
Elapsed time = 7.59 sec. (4444.89 ticks, tree = 0.02 MB, solutions = 0)
*   130    73      integral     0     1315.0360     2259.6599     6576   71.83%
    373    83     2250.5111     2     2225.1847     2259.6599     8085    1.55%
    685   150     2241.5084     1     2225.1847     2259.6599     8673    1.55%
    924   237     2249.3426     2     2225.1847     2259.6599     9055    1.55%
   1147   344     2247.3148     1     2225.1847     2259.6599     9649    1.55%
   1344   377        cutoff           2225.1847     2259.6599     9841    1.55%
   1506   388     2241.9021     1     2225.1847     2259.6599    10007    1.55%
   1646   410     2249.3426     1     2225.1847     2259.6599    10167    1.55%
   1783   430        cutoff           2225.1847     2259.6599    10309    1.55%
   2251   505     2232.3656     1     2225.1847     2259.6599    10766    1.55%
Elapsed time = 12.95 sec. (7448.67 ticks, tree = 3.34 MB, solutions = 6)
   2636   491     2241.9021     1     2225.1847     2259.6599    10838    1.55%
   2983   509        cutoff           2225.1847     2259.6599    11060    1.55%
   3318   509     2241.9021     1     2225.1847     2259.6599    11152    1.55%
   3614   569     2247.3148     1     2225.1847     2259.6599    11545    1.55%
   3850   566        cutoff           2225.1847     2259.6599    11662    1.55%
   4064   566        cutoff           2225.1847     2259.6599    11733    1.55%
   4264   680        cutoff           2225.1847     2259.6599    12299    1.55%
   4451   681        cutoff           2225.1847     2259.6599    12398    1.55%
   4643   683     2249.3426     1     2225.1847     2259.6599    12430    1.55%
   4812   688     2249.3426     1     2225.1847     2259.6599    12603    1.55%
Elapsed time = 24.84 sec. (17021.69 ticks, tree = 4.76 MB, solutions = 6)
   4967   688     2239.3549     2     2225.1847     2259.6599    12650    1.55%
   5129   687        cutoff           2225.1847     2259.6599    12735    1.55%
   5291   691     2240.8853     1     2225.1847     2259.6599    12801    1.55%
   5641   736     2227.5887     1     2225.1847     2259.6599    13233    1.55%
   6134   736     2227.5887     1     2225.1847     2259.6599    13245    1.55%
   6641   849     2247.3148     1     2225.1847     2259.6599    13965    1.55%
   7039  1143     2227.5887     1     2225.1847     2259.6599    15410    1.55%
   7355   967     2226.7171     2     2225.1847     2259.6599    14505    1.55%
   7576  1144     2241.9021     3     2225.1847     2259.6599    15458    1.55%
   7754  1194        cutoff           2225.1847     2259.6599    16052    1.55%
Elapsed time = 35.20 sec. (26590.06 ticks, tree = 9.10 MB, solutions = 6)
   7917  1352     2247.3148     1     2225.1847     2259.6599    17067    1.55%
   8081  1194        cutoff           2225.1847     2259.6599    16038    1.55%
   8232  1336     2247.3148     1     2225.1847     2259.6599    16873    1.55%
   8378  1365        cutoff           2225.1847     2259.6599    17189    1.55%
   8523  1371        cutoff           2225.1847     2259.6599    17305    1.55%
   8655  1404        cutoff           2225.1847     2259.6599    17668    1.55%
   8780  1375     2247.3148     1     2225.1847     2259.6599    17349    1.55%
   8916  1399     2247.3148     1     2225.1847     2259.6599    17636    1.55%
   9048  1389     2259.6599     1     2225.1847     2259.6599    17457    1.55%
   9203  1420     2247.3148     1     2225.1847     2259.6599    17861    1.55%
Elapsed time = 45.00 sec. (36203.39 ticks, tree = 10.98 MB, solutions = 6)
   9344  1438     2227.5887     3     2225.1847     2259.6599    18276    1.55%
   9483  1424     2247.3148     1     2225.1847     2259.6599    17937    1.55%
   9619  1428        cutoff           2225.1847     2259.6599    18017    1.55%
   9734  1429        cutoff           2225.1847     2259.6599    18056    1.55%
   9841  1434        cutoff           2225.1847     2259.6599    18101    1.55%
   9885  1431     2241.9021     1     2225.1847     2259.6599    18077    1.55%
   9914  1441     2240.8853     1     2225.1847     2259.6599    18329    1.55%
   9917  1495     2247.3148     4     2225.1847     2250.0329    23260    1.12%

Cover cuts applied:  3
Implied bound cuts applied:  7
Flow cuts applied:  10
Mixed integer rounding cuts applied:  11
Gomory fractional cuts applied:  6

Root node processing (before b&c):
  Real time             =    7.17 sec. (4425.28 ticks)
Parallel b&c, 24 threads:
  Real time             =   44.78 sec. (40653.83 ticks)
  Sync time (average)   =    0.44 sec.
  Wait time (average)   =    0.03 sec.
                          ------------
Total (root+branch&cut) =   51.95 sec. (45079.11 ticks)

Solution pool: 6 solutions saved.

MIP - Integer optimal, tolerance (0.01/1e-06):  Objective =  2.2251846818e+03
Current MIP best bound =  2.2473147546e+03 (gap = 22.1301, 0.99%)
Solution time =   51.95 sec.  Iterations = 23287  Nodes = 9925 (451)
Deterministic time = 45079.27 ticks  (867.69 ticks/sec)

CPLEX> Incumbent solution written to file 'C:\Users\Luke\Desktop\test919\logs\tmp9m7xible.cplex.sol'.
CPLEX> Exporting results... 
